Route #1: 49 3 17 43 31 30 16 24 20 44 33
Route #2: 42 8 10 35 22 53 12 14 25 18
Route #3: 
Route #4: 21 7 28 32 19 36
Route #5: 45 47 23 48 27 41 11 50 51 37 1 34
Route #6: 26 40 6 15 4
Route #7: 29 46 38 13 2 5 9 52 39
cost 1585.862228271116
